<instance format="XCSP3" type="CSP">
  <variables>
    <var id="x0"> 3 5 10 11 14 </var>
    <var id="x1"> 2 3 5 14 </var>
    <var id="x2"> 3 4 10 13 </var>
    <var id="x3"> 3 5 14 </var>
    <var id="x4"> 2 10 11 13 14 </var>
    <var id="x5"> 5 11 13 14 </var>
    <var id="x6"> 2 4 5 11 </var>
    <var id="x7"> 3 11 14 </var>
    <var id="x8"> 5 11 14 </var>
    <var id="x9"> 7 9 13 </var>
    <var id="x10"> 7 9 11 13 14 </var>
    <var as="x10" id="x11"/>
    <var id="x12"> 5 13 14 </var>
    <var id="x13"> 5 11 12 </var>
    <var id="x14"> 5 7 11 14 </var>
    <var id="x15"> 1 3 5 11 14 </var>
    <var id="x16"> 9 11 14 </var>
    <var id="x17"> 2 5 11 14 </var>
    <var id="x18"> 1 2 9 11 14 </var>
    <var id="x19"> 2 5 14 </var>
    <var id="x20"> 2 5 11 </var>
    <var id="x21"> 3 9 11 14 </var>
    <var id="x22"> 0 1 5 11 </var>
    <var id="x23"> 0 1 11 </var>
    <var id="x24"> 6 9 13 </var>
    <var id="x25"> 9 11 13 </var>
    <var id="x26"> 1 9 11 13 </var>
    <var id="x27"> 6 9 11 </var>
    <var id="x28"> 1 6 9 </var>
    <var id="x29"> 1 10 </var>
    <var id="x30"> 1 5 9 14 </var>
    <var id="x31"> 5 6 14 </var>
    <var id="x32"> 1 7 9 10 14 </var>
    <var id="x33"> 5 6 10 14 </var>
    <var id="x34"> 1 5 9 14 </var>
    <var id="x35"> 1 6 7 9 10 14 </var>
    <var id="x36"> 1..3 12 </var>
    <var id="x37"> 1..3 13 </var>
    <var id="x38"> 2 6 13 14 </var>
    <var id="x39"> 1 2 13 14 </var>
    <var id="x40"> 2 6 13 14 </var>
    <var id="x41"> 1 12..14 </var>
    <var id="x42"> 1 3 6 14 </var>
    <var id="x43"> 0 1 10 </var>
    <var id="x44"> 0 1 9 </var>
    <var id="x45"> 6 7 9 10 </var>
    <var id="x46"> 0 1 8 9 </var>
    <var id="x47"> 6 8 10 </var>
    <var id="x48"> 6..9 </var>
    <var id="x49"> 1 6 7 </var>
    <var id="x50"> 0..3 </var>
    <var id="x51"> 0 1 3 </var>
    <var id="x52"> 10 11 </var>
    <var id="x53"> 0 2 6 11 </var>
    <var id="x54"> 2 6 10 </var>
    <var id="x55"> 1 11 </var>
    <var id="x56"> 1 3 6 11 </var>
    <var id="x57"> 3 10 11 14 </var>
    <var id="x58"> 3 10 11 </var>
    <var id="x59"> 3 4 6 9 10 </var>
    <var id="x60"> 9..11 14 </var>
    <var id="x61"> 4 6 11 </var>
    <var id="x62"> 3 6 9 11 14 </var>
    <var id="x63"> 3 6 9 10 14 </var>
    <var id="x64"> 2 3 5 14 </var>
    <var id="x65"> 2 3 11 </var>
    <var id="x66"> 3 5 14 </var>
    <var id="x67"> 4 7 11 14 </var>
    <var id="x68"> 2 3 5 11 </var>
    <var id="x69"> 2 4 5 11 </var>
    <var id="x70"> 3 5 7 11 14 </var>
    <var id="x71"> 1 5 11 14 </var>
    <var id="x72"> 1 5 14 </var>
    <var id="x73"> 1 5 11 13 </var>
    <var id="x74"> 1 7 11 13 14 </var>
    <var id="x75"> 1 5 11 13 14 </var>
    <var id="x76"> 7 8 11 14 </var>
    <var id="x77"> 1 5 7 11 14 </var>
    <var id="x78"> 0 2 3 9 14 </var>
    <var id="x79"> 0 2 3 11 12 </var>
    <var id="x80"> 3 9 </var>
    <var id="x81"> 9 11 14 </var>
    <var id="x82"> 2 3 9 11 </var>
    <var id="x83"> 0 2 11 14 </var>
    <var id="x84"> 9 11 12 14 </var>
    <var id="x85"> 3 6 9 10 13 </var>
    <var id="x86"> 3 9 14 </var>
    <var id="x87"> 2 3 9 13 </var>
    <var id="x88"> 2 6 13 14 </var>
    <var id="x89"> 2 6 </var>
    <var as="x63" id="x90"/>
    <var id="x91"> 3 6 14 </var>
    <var id="x92"> 0 1 5 14 </var>
    <var id="x93"> 0 1 10 </var>
    <var id="x94"> 0 1 5 8 14 </var>
    <var id="x95"> 1 5 13 </var>
    <var id="x96"> 1 5 13 14 </var>
    <var id="x97"> 5 8 </var>
    <var id="x98"> 1 10 14 </var>
    <var id="x99"> 7 9 11 </var>
    <var id="x100"> 1 3 5 9 11 </var>
    <var id="x101"> 5 11 </var>
    <var id="x102"> 5 8 </var>
    <var id="x103"> 3 7..9 11 </var>
    <var id="x104"> 1 3 7 9 </var>
    <var id="x105"> 1 3 5 7 11 </var>
  </variables>
  <constraints>
    <group>
      <allDifferent> %... </allDifferent>
      <args> x0 x1 x2 x3 x4 x5 x6 x7 </args>
      <args> x8 x9 x10 x11 x12 x13 x14 </args>
      <args> x15 x16 x17 x18 x19 x20 x21 </args>
      <args> x22 x23 x24 x25 x26 x27 x28 </args>
      <args> x29 x30 x31 x32 x33 x34 x35 </args>
      <args> x36 x37 x38 x39 x40 x41 x42 </args>
      <args> x43 x44 x45 x46 x47 x48 x49 </args>
      <args> x50 x51 x52 x53 x54 x55 x56 </args>
      <args> x57 x58 x59 x60 x61 x62 x63 </args>
      <args> x64 x65 x66 x67 x68 x69 x70 </args>
      <args> x71 x72 x73 x74 x75 x76 x77 </args>
      <args> x78 x79 x80 x81 x82 x83 x84 </args>
      <args> x85 x86 x87 x88 x89 x90 x91 </args>
      <args> x92 x93 x94 x95 x96 x97 x98 </args>
      <args> x99 x100 x101 x102 x103 x104 x105 </args>
      <args> x0 x8 x15 x22 x43 x57 x71 </args>
      <args> x1 x44 x50 x64 x72 x78 x92 </args>
      <args> x23 x29 x36 x58 x65 x79 x93 </args>
      <args> x2 x9 x24 x45 x59 x80 x85 </args>
      <args> x3 x30 x46 x51 x66 x86 x94 </args>
      <args> x10 x16 x25 x52 x67 x81 x99 </args>
      <args> x37 x68 x73 x82 x87 x95 x100 </args>
      <args> x17 x31 x38 x53 x83 x88 x101 </args>
      <args> x4 x11 x18 x26 x32 x39 x60 x74 </args>
      <args> x12 x19 x33 x40 x47 x54 x102 </args>
      <args> x5 x34 x41 x55 x75 x84 x96 </args>
      <args> x6 x13 x20 x61 x69 x89 x97 </args>
      <args> x7 x21 x27 x48 x62 x76 x103 </args>
      <args> x28 x35 x42 x63 x90 x98 x104 </args>
      <args> x14 x49 x56 x70 x77 x91 x105 </args>
    </group>
  </constraints>
</instance>

